p cnf 1189 2424
1 2 0
3 2 0
-1 -3 -2 0
-4 2 -5 0
4 -2 -5 0
5 -2 -4 0
4 2 5 0
-5 0
6 7 0
8 7 0
-6 -8 -7 0
-3 7 -9 0
3 -7 -9 0
9 -7 -3 0
3 7 9 0
-9 0
6 10 0
11 10 0
-6 -11 -10 0
-8 10 -12 0
8 -10 -12 0
12 -10 -8 0
8 10 12 0
-12 0
13 14 0
15 14 0
-13 -15 -14 0
14 -16 -17 0
16 -14 -17 0
17 -14 -16 0
16 14 17 0
-17 0
18 19 0
20 19 0
-18 -20 -19 0
-15 19 -21 0
15 -19 -21 0
21 -19 -15 0
15 19 21 0
-21 0
20 -22 0
22 -20 0
23 24 0
25 24 0
-23 -25 -24 0
24 -26 -27 0
26 -24 -27 0
27 -24 -26 0
26 24 27 0
-27 0
28 29 0
30 29 0
-28 -30 -29 0
-25 29 -31 0
25 -29 -31 0
31 -29 -25 0
25 29 31 0
-31 0
32 33 0
34 33 0
-32 -34 -33 0
-30 33 -35 0
30 -33 -35 0
35 -33 -30 0
30 33 35 0
-35 0
36 37 0
38 37 0
-36 -38 -37 0
-34 37 -39 0
34 -37 -39 0
39 -37 -34 0
34 37 39 0
-39 0
40 41 0
42 41 0
-40 -42 -41 0
-38 41 -43 0
38 -41 -43 0
43 -41 -38 0
38 41 43 0
-43 0
44 45 0
46 45 0
-44 -46 -45 0
-42 45 -47 0
42 -45 -47 0
47 -45 -42 0
42 45 47 0
-47 0
40 48 0
44 48 0
49 48 0
-40 -44 -49 -48 0
-46 48 -50 0
46 -48 -50 0
50 -48 -46 0
46 48 50 0
-50 0
51 52 0
53 52 0
-51 -53 -52 0
52 -54 -55 0
54 -52 -55 0
55 -52 -54 0
54 52 55 0
-55 0
56 57 0
58 57 0
-56 -58 -57 0
-53 57 -59 0
53 -57 -59 0
59 -57 -53 0
53 57 59 0
-59 0
58 -60 0
60 -58 0
58 61 0
62 61 0
-58 -62 -61 0
-63 61 -64 0
63 -61 -64 0
64 -61 -63 0
63 61 64 0
-64 0
65 66 0
67 66 0
-65 -67 -66 0
66 -68 -69 0
68 -66 -69 0
69 -66 -68 0
68 66 69 0
-69 0
70 71 0
72 71 0
-70 -72 -71 0
-67 71 -73 0
67 -71 -73 0
73 -71 -67 0
67 71 73 0
-73 0
74 75 0
76 75 0
-74 -76 -75 0
-72 75 -77 0
72 -75 -77 0
77 -75 -72 0
72 75 77 0
-77 0
78 79 0
80 79 0
-78 -80 -79 0
-76 79 -81 0
76 -79 -81 0
81 -79 -76 0
76 79 81 0
-81 0
82 83 0
84 83 0
-82 -84 -83 0
-80 83 -85 0
80 -83 -85 0
85 -83 -80 0
80 83 85 0
-85 0
78 86 0
82 86 0
87 86 0
-78 -82 -87 -86 0
-84 86 -88 0
84 -86 -88 0
88 -86 -84 0
84 86 88 0
-88 0
89 90 0
91 90 0
-89 -91 -90 0
90 -92 -93 0
92 -90 -93 0
93 -90 -92 0
92 90 93 0
-93 0
46 94 0
95 94 0
-46 -95 -94 0
-91 94 -96 0
91 -94 -96 0
96 -94 -91 0
91 94 96 0
-96 0
97 98 0
99 98 0
-97 -99 -98 0
98 -100 -101 0
100 -98 -101 0
101 -98 -100 0
100 98 101 0
-101 0
102 103 0
104 103 0
-102 -104 -103 0
-99 103 -105 0
99 -103 -105 0
105 -103 -99 0
99 103 105 0
-105 0
91 106 0
107 106 0
-91 -107 -106 0
-104 106 -108 0
104 -106 -108 0
108 -106 -104 0
104 106 108 0
-108 0
109 110 0
111 110 0
-109 -111 -110 0
110 -112 -113 0
112 -110 -113 0
113 -110 -112 0
112 110 113 0
-113 0
114 115 0
116 115 0
-114 -116 -115 0
-111 115 -117 0
111 -115 -117 0
117 -115 -111 0
111 115 117 0
-117 0
118 119 0
120 119 0
-118 -120 -119 0
-116 119 -121 0
116 -119 -121 0
121 -119 -116 0
116 119 121 0
-121 0
122 123 0
124 123 0
-122 -124 -123 0
-120 123 -125 0
120 -123 -125 0
125 -123 -120 0
120 123 125 0
-125 0
126 127 0
128 127 0
-126 -128 -127 0
-124 127 -129 0
124 -127 -129 0
129 -127 -124 0
124 127 129 0
-129 0
118 130 0
122 130 0
126 130 0
131 130 0
-132 0
-128 130 -133 0
128 -130 -133 0
133 -130 -128 0
128 130 133 0
-133 0
134 135 0
136 135 0
-134 -136 -135 0
135 -137 -138 0
137 -135 -138 0
138 -135 -137 0
137 135 138 0
-138 0
139 140 0
141 140 0
-139 -141 -140 0
-136 140 -142 0
136 -140 -142 0
142 -140 -136 0
136 140 142 0
-142 0
143 144 0
145 144 0
-143 -145 -144 0
-141 144 -146 0
141 -144 -146 0
146 -144 -141 0
141 144 146 0
-146 0
147 148 0
149 148 0
-147 -149 -148 0
-145 148 -150 0
145 -148 -150 0
150 -148 -145 0
145 148 150 0
-150 0
151 152 0
153 152 0
-151 -153 -152 0
-149 152 -154 0
149 -152 -154 0
154 -152 -149 0
149 152 154 0
-154 0
155 156 0
157 156 0
-155 -157 -156 0
-153 156 -158 0
153 -156 -158 0
158 -156 -153 0
153 156 158 0
-158 0
147 159 0
151 159 0
155 159 0
160 159 0
-161 0
-157 159 -162 0
157 -159 -162 0
162 -159 -157 0
157 159 162 0
-162 0
111 163 0
164 163 0
-111 -164 -163 0
163 -165 -166 0
165 -163 -166 0
166 -163 -165 0
165 163 166 0
-166 0
157 167 0
168 167 0
-157 -168 -167 0
167 -169 -170 0
169 -167 -170 0
170 -167 -169 0
169 167 170 0
-170 0
171 172 0
4 172 0
-171 -4 -172 0
172 -173 -174 0
173 -172 -174 0
174 -172 -173 0
173 172 174 0
-174 0
175 176 0
177 176 0
-175 -177 -176 0
176 -178 -179 0
178 -176 -179 0
179 -176 -178 0
178 176 179 0
-179 0
180 181 0
182 181 0
-180 -182 -181 0
-177 181 -183 0
177 -181 -183 0
183 -181 -177 0
177 181 183 0
-183 0
8 184 0
185 184 0
-8 -185 -184 0
-182 184 -186 0
182 -184 -186 0
186 -184 -182 0
182 184 186 0
-186 0
4 187 0
188 187 0
-4 -188 -187 0
-189 187 -190 0
189 -187 -190 0
190 -187 -189 0
189 187 190 0
-190 0
191 192 0
193 192 0
-191 -193 -192 0
192 -194 -195 0
194 -192 -195 0
195 -192 -194 0
194 192 195 0
-195 0
196 197 0
198 197 0
-196 -198 -197 0
-193 197 -199 0
193 -197 -199 0
199 -197 -193 0
193 197 199 0
-199 0
145 200 0
201 200 0
-145 -201 -200 0
-198 200 -202 0
198 -200 -202 0
202 -200 -198 0
198 200 202 0
-202 0
203 204 0
189 204 0
-203 -189 -204 0
204 -205 -206 0
205 -204 -206 0
206 -204 -205 0
205 204 206 0
-206 0
207 208 0
209 208 0
-207 -209 -208 0
208 -210 -211 0
210 -208 -211 0
211 -208 -210 0
210 208 211 0
-211 0
212 213 0
214 213 0
-212 -214 -213 0
-209 213 -215 0
209 -213 -215 0
215 -213 -209 0
209 213 215 0
-215 0
72 216 0
217 216 0
-72 -217 -216 0
-214 216 -218 0
214 -216 -218 0
218 -216 -214 0
214 216 218 0
-218 0
219 220 0
221 220 0
-219 -221 -220 0
220 -222 -223 0
222 -220 -223 0
223 -220 -222 0
222 220 223 0
-223 0
224 225 0
63 225 0
-224 -63 -225 0
-221 225 -226 0
221 -225 -226 0
226 -225 -221 0
221 225 226 0
-226 0
63 227 0
228 227 0
-63 -228 -227 0
227 -229 -230 0
229 -227 -230 0
230 -227 -229 0
229 227 230 0
-230 0
231 232 0
233 232 0
-231 -233 -232 0
-234 232 -235 0
234 -232 -235 0
235 -232 -234 0
234 232 235 0
-235 0
236 237 0
238 237 0
-236 -238 -237 0
-233 237 -239 0
233 -237 -239 0
239 -237 -233 0
233 237 239 0
-239 0
240 241 0
242 241 0
-240 -242 -241 0
-238 241 -243 0
238 -241 -243 0
243 -241 -238 0
238 241 243 0
-243 0
244 245 0
246 245 0
-244 -246 -245 0
-242 245 -247 0
242 -245 -247 0
247 -245 -242 0
242 245 247 0
-247 0
240 248 0
244 248 0
249 248 0
-240 -244 -249 -248 0
-246 248 -250 0
246 -248 -250 0
250 -248 -246 0
246 248 250 0
-250 0
251 252 0
253 252 0
-251 -253 -252 0
-254 252 -255 0
254 -252 -255 0
255 -252 -254 0
254 252 255 0
-255 0
256 257 0
258 257 0
-256 -258 -257 0
-253 257 -259 0
253 -257 -259 0
259 -257 -253 0
253 257 259 0
-259 0
260 261 0
262 261 0
-260 -262 -261 0
-258 261 -263 0
258 -261 -263 0
263 -261 -258 0
258 261 263 0
-263 0
264 265 0
266 265 0
-264 -266 -265 0
-262 265 -267 0
262 -265 -267 0
267 -265 -262 0
262 265 267 0
-267 0
268 269 0
270 269 0
-268 -270 -269 0
-266 269 -271 0
266 -269 -271 0
271 -269 -266 0
266 269 271 0
-271 0
272 273 0
274 273 0
-272 -274 -273 0
-270 273 -275 0
270 -273 -275 0
275 -273 -270 0
270 273 275 0
-275 0
276 277 0
278 277 0
-276 -278 -277 0
-274 277 -279 0
274 -277 -279 0
279 -277 -274 0
274 277 279 0
-279 0
268 280 0
272 280 0
276 280 0
281 280 0
-282 0
-278 280 -283 0
278 -280 -283 0
283 -280 -278 0
278 280 283 0
-283 0
284 285 0
286 285 0
-284 -286 -285 0
-287 285 -288 0
287 -285 -288 0
288 -285 -287 0
287 285 288 0
-288 0
289 290 0
291 290 0
-289 -291 -290 0
-286 290 -292 0
286 -290 -292 0
292 -290 -286 0
286 290 292 0
-292 0
293 294 0
295 294 0
-293 -295 -294 0
-291 294 -296 0
291 -294 -296 0
296 -294 -291 0
291 294 296 0
-296 0
297 298 0
299 298 0
-297 -299 -298 0
-295 298 -300 0
295 -298 -300 0
300 -298 -295 0
295 298 300 0
-300 0
301 302 0
303 302 0
-301 -303 -302 0
-299 302 -304 0
299 -302 -304 0
304 -302 -299 0
299 302 304 0
-304 0
305 306 0
307 306 0
-305 -307 -306 0
-303 306 -308 0
303 -306 -308 0
308 -306 -303 0
303 306 308 0
-308 0
297 309 0
301 309 0
305 309 0
310 309 0
-311 0
-307 309 -312 0
307 -309 -312 0
312 -309 -307 0
307 309 312 0
-312 0
313 314 0
315 314 0
-313 -315 -314 0
-316 314 -317 0
316 -314 -317 0
317 -314 -316 0
316 314 317 0
-317 0
318 319 0
320 319 0
-318 -320 -319 0
-315 319 -321 0
315 -319 -321 0
321 -319 -315 0
315 319 321 0
-321 0
145 322 0
323 322 0
-145 -323 -322 0
-320 322 -324 0
320 -322 -324 0
324 -322 -320 0
320 322 324 0
-324 0
325 326 0
327 326 0
-325 -327 -326 0
-328 326 -329 0
328 -326 -329 0
329 -326 -328 0
328 326 329 0
-329 0
330 331 0
332 331 0
-330 -332 -331 0
-327 331 -333 0
327 -331 -333 0
333 -331 -327 0
327 331 333 0
-333 0
334 335 0
336 335 0
-334 -336 -335 0
-332 335 -337 0
332 -335 -337 0
337 -335 -332 0
332 335 337 0
-337 0
338 339 0
340 339 0
-338 -340 -339 0
-336 339 -341 0
336 -339 -341 0
341 -339 -336 0
336 339 341 0
-341 0
342 343 0
344 343 0
-342 -344 -343 0
-340 343 -345 0
340 -343 -345 0
345 -343 -340 0
340 343 345 0
-345 0
342 346 0
347 346 0
-342 -347 -346 0
-344 346 -348 0
344 -346 -348 0
348 -346 -344 0
344 346 348 0
-348 0
349 350 0
351 350 0
-349 -351 -350 0
-352 350 -353 0
352 -350 -353 0
353 -350 -352 0
352 350 353 0
-353 0
354 355 0
356 355 0
-354 -356 -355 0
-351 355 -357 0
351 -355 -357 0
357 -355 -351 0
351 355 357 0
-357 0
358 359 0
360 359 0
-358 -360 -359 0
-356 359 -361 0
356 -359 -361 0
361 -359 -356 0
356 359 361 0
-361 0
362 363 0
364 363 0
-362 -364 -363 0
-360 363 -365 0
360 -363 -365 0
365 -363 -360 0
360 363 365 0
-365 0
366 367 0
368 367 0
-366 -368 -367 0
-364 367 -369 0
364 -367 -369 0
369 -367 -364 0
364 367 369 0
-369 0
370 371 0
372 371 0
-370 -372 -371 0
-368 371 -373 0
368 -371 -373 0
373 -371 -368 0
368 371 373 0
-373 0
366 374 0
370 374 0
375 374 0
-366 -370 -375 -374 0
-372 374 -376 0
372 -374 -376 0
376 -374 -372 0
372 374 376 0
-376 0
377 378 0
379 378 0
-377 -379 -378 0
-380 378 -381 0
380 -378 -381 0
381 -378 -380 0
380 378 381 0
-381 0
382 383 0
384 383 0
-382 -384 -383 0
-379 383 -385 0
379 -383 -385 0
385 -383 -379 0
379 383 385 0
-385 0
386 387 0
388 387 0
-386 -388 -387 0
-384 387 -389 0
384 -387 -389 0
389 -387 -384 0
384 387 389 0
-389 0
390 391 0
392 391 0
-390 -392 -391 0
-388 391 -393 0
388 -391 -393 0
393 -391 -388 0
388 391 393 0
-393 0
394 395 0
396 395 0
-394 -396 -395 0
-392 395 -397 0
392 -395 -397 0
397 -395 -392 0
392 395 397 0
-397 0
386 398 0
390 398 0
394 398 0
399 398 0
-400 0
-396 398 -401 0
396 -398 -401 0
401 -398 -396 0
396 398 401 0
-401 0
402 403 0
404 403 0
-402 -404 -403 0
-405 403 -406 0
405 -403 -406 0
406 -403 -405 0
405 403 406 0
-406 0
407 408 0
409 408 0
-407 -409 -408 0
-404 408 -410 0
404 -408 -410 0
410 -408 -404 0
404 408 410 0
-410 0
411 412 0
413 412 0
-411 -413 -412 0
-409 412 -414 0
409 -412 -414 0
414 -412 -409 0
409 412 414 0
-414 0
415 416 0
417 416 0
-415 -417 -416 0
-413 416 -418 0
413 -416 -418 0
418 -416 -413 0
413 416 418 0
-418 0
419 420 0
421 420 0
-419 -421 -420 0
-417 420 -422 0
417 -420 -422 0
422 -420 -417 0
417 420 422 0
-422 0
423 424 0
425 424 0
-423 -425 -424 0
-421 424 -426 0
421 -424 -426 0
426 -424 -421 0
421 424 426 0
-426 0
419 427 0
423 427 0
428 427 0
-419 -423 -428 -427 0
-425 427 -429 0
425 -427 -429 0
429 -427 -425 0
425 427 429 0
-429 0
430 431 0
432 431 0
-430 -432 -431 0
-433 431 -434 0
433 -431 -434 0
434 -431 -433 0
433 431 434 0
-434 0
435 436 0
437 436 0
-435 -437 -436 0
-432 436 -438 0
432 -436 -438 0
438 -436 -432 0
432 436 438 0
-438 0
439 440 0
441 440 0
-439 -441 -440 0
-437 440 -442 0
437 -440 -442 0
442 -440 -437 0
437 440 442 0
-442 0
443 444 0
445 444 0
-443 -445 -444 0
-441 444 -446 0
441 -444 -446 0
446 -444 -441 0
441 444 446 0
-446 0
447 448 0
449 448 0
-447 -449 -448 0
-445 448 -450 0
445 -448 -450 0
450 -448 -445 0
445 448 450 0
-450 0
443 451 0
447 451 0
452 451 0
-443 -447 -452 -451 0
-449 451 -453 0
449 -451 -453 0
453 -451 -449 0
449 451 453 0
-453 0
454 455 0
456 455 0
-454 -456 -455 0
-457 455 -458 0
457 -455 -458 0
458 -455 -457 0
457 455 458 0
-458 0
459 460 0
461 460 0
-459 -461 -460 0
-456 460 -462 0
456 -460 -462 0
462 -460 -456 0
456 460 462 0
-462 0
368 463 0
464 463 0
-368 -464 -463 0
-461 463 -465 0
461 -463 -465 0
465 -463 -461 0
461 463 465 0
-465 0
466 467 0
468 467 0
-466 -468 -467 0
-469 467 -470 0
469 -467 -470 0
470 -467 -469 0
469 467 470 0
-470 0
344 471 0
472 471 0
-344 -472 -471 0
-468 471 -473 0
468 -471 -473 0
473 -471 -468 0
468 471 473 0
-473 0
474 475 0
476 475 0
-474 -476 -475 0
-477 475 -478 0
477 -475 -478 0
478 -475 -477 0
477 475 478 0
-478 0
479 480 0
481 480 0
-479 -481 -480 0
-476 480 -482 0
476 -480 -482 0
482 -480 -476 0
476 480 482 0
-482 0
483 484 0
485 484 0
-483 -485 -484 0
-481 484 -486 0
481 -484 -486 0
486 -484 -481 0
481 484 486 0
-486 0
487 488 0
489 488 0
-487 -489 -488 0
-485 488 -490 0
485 -488 -490 0
490 -488 -485 0
485 488 490 0
-490 0
487 491 0
492 491 0
-487 -492 -491 0
-489 491 -493 0
489 -491 -493 0
493 -491 -489 0
489 491 493 0
-493 0
494 495 0
496 495 0
-494 -496 -495 0
-497 495 -498 0
497 -495 -498 0
498 -495 -497 0
497 495 498 0
-498 0
499 500 0
501 500 0
-499 -501 -500 0
-496 500 -502 0
496 -500 -502 0
502 -500 -496 0
496 500 502 0
-502 0
503 504 0
505 504 0
-503 -505 -504 0
-501 504 -506 0
501 -504 -506 0
506 -504 -501 0
501 504 506 0
-506 0
507 508 0
509 508 0
-507 -509 -508 0
-505 508 -510 0
505 -508 -510 0
510 -508 -505 0
505 508 510 0
-510 0
511 512 0
513 512 0
-511 -513 -512 0
-509 512 -514 0
509 -512 -514 0
514 -512 -509 0
509 512 514 0
-514 0
507 515 0
511 515 0
516 515 0
-507 -511 -516 -515 0
-513 515 -517 0
513 -515 -517 0
517 -515 -513 0
513 515 517 0
-517 0
518 519 0
520 519 0
-518 -520 -519 0
-521 519 -522 0
521 -519 -522 0
522 -519 -521 0
521 519 522 0
-522 0
523 524 0
525 524 0
-523 -525 -524 0
-520 524 -526 0
520 -524 -526 0
526 -524 -520 0
520 524 526 0
-526 0
76 527 0
528 527 0
-76 -528 -527 0
-525 527 -529 0
525 -527 -529 0
529 -527 -525 0
525 527 529 0
-529 0
530 531 0
532 531 0
-530 -532 -531 0
-533 531 -534 0
533 -531 -534 0
534 -531 -533 0
533 531 534 0
-534 0
535 536 0
537 536 0
-535 -537 -536 0
-532 536 -538 0
532 -536 -538 0
538 -536 -532 0
532 536 538 0
-538 0
539 540 0
541 540 0
-539 -541 -540 0
-537 540 -542 0
537 -540 -542 0
542 -540 -537 0
537 540 542 0
-542 0
543 544 0
545 544 0
-543 -545 -544 0
-541 544 -546 0
541 -544 -546 0
546 -544 -541 0
541 544 546 0
-546 0
547 548 0
549 548 0
-547 -549 -548 0
-545 548 -550 0
545 -548 -550 0
550 -548 -545 0
545 548 550 0
-550 0
551 552 0
553 552 0
-551 -553 -552 0
-549 552 -554 0
549 -552 -554 0
554 -552 -549 0
549 552 554 0
-554 0
555 556 0
557 556 0
-555 -557 -556 0
-553 556 -558 0
553 -556 -558 0
558 -556 -553 0
553 556 558 0
-558 0
547 559 0
551 559 0
555 559 0
560 559 0
-561 0
-557 559 -562 0
557 -559 -562 0
562 -559 -557 0
557 559 562 0
-562 0
563 564 0
565 564 0
-563 -565 -564 0
-566 564 -567 0
566 -564 -567 0
567 -564 -566 0
566 564 567 0
-567 0
568 569 0
570 569 0
-568 -570 -569 0
-565 569 -571 0
565 -569 -571 0
571 -569 -565 0
565 569 571 0
-571 0
572 573 0
574 573 0
-572 -574 -573 0
-570 573 -575 0
570 -573 -575 0
575 -573 -570 0
570 573 575 0
-575 0
576 577 0
578 577 0
-576 -578 -577 0
-574 577 -579 0
574 -577 -579 0
579 -577 -574 0
574 577 579 0
-579 0
576 580 0
581 580 0
-576 -581 -580 0
-578 580 -582 0
578 -580 -582 0
582 -580 -578 0
578 580 582 0
-582 0
583 584 0
585 584 0
-583 -585 -584 0
-586 584 -587 0
586 -584 -587 0
587 -584 -586 0
586 584 587 0
-587 0
588 589 0
590 589 0
-588 -590 -589 0
-585 589 -591 0
585 -589 -591 0
591 -589 -585 0
585 589 591 0
-591 0
592 593 0
594 593 0
-592 -594 -593 0
-590 593 -595 0
590 -593 -595 0
595 -593 -590 0
590 593 595 0
-595 0
594 -596 0
596 -594 0
320 597 0
598 597 0
-320 -598 -597 0
-599 597 -600 0
599 -597 -600 0
600 -597 -599 0
599 597 600 0
-600 0
481 601 0
602 601 0
-481 -602 -601 0
-603 601 -604 0
603 -601 -604 0
604 -601 -603 0
603 601 604 0
-604 0
605 606 0
607 606 0
-605 -607 -606 0
-608 606 -609 0
608 -606 -609 0
609 -606 -608 0
608 606 609 0
-609 0
610 611 0
612 611 0
-610 -612 -611 0
-607 611 -613 0
607 -611 -613 0
613 -611 -607 0
607 611 613 0
-613 0
614 615 0
616 615 0
-614 -616 -615 0
-612 615 -617 0
612 -615 -617 0
617 -615 -612 0
612 615 617 0
-617 0
614 618 0
619 618 0
-614 -619 -618 0
-616 618 -620 0
616 -618 -620 0
620 -618 -616 0
616 618 620 0
-620 0
621 622 0
623 622 0
-621 -623 -622 0
-624 622 -625 0
624 -622 -625 0
625 -622 -624 0
624 622 625 0
-625 0
626 627 0
628 627 0
-626 -628 -627 0
-623 627 -629 0
623 -627 -629 0
629 -627 -623 0
623 627 629 0
-629 0
630 631 0
632 631 0
-630 -632 -631 0
-628 631 -633 0
628 -631 -633 0
633 -631 -628 0
628 631 633 0
-633 0
344 634 0
635 634 0
-344 -635 -634 0
-632 634 -636 0
632 -634 -636 0
636 -634 -632 0
632 634 636 0
-636 0
637 638 0
639 638 0
-637 -639 -638 0
-640 638 -641 0
640 -638 -641 0
641 -638 -640 0
640 638 641 0
-641 0
360 642 0
643 642 0
-360 -643 -642 0
-639 642 -644 0
639 -642 -644 0
644 -642 -639 0
639 642 644 0
-644 0
645 646 0
647 646 0
-645 -647 -646 0
-648 646 -649 0
648 -646 -649 0
649 -646 -648 0
648 646 649 0
-649 0
650 651 0
652 651 0
-650 -652 -651 0
-647 651 -653 0
647 -651 -653 0
653 -651 -647 0
647 651 653 0
-653 0
340 654 0
655 654 0
-340 -655 -654 0
-652 654 -656 0
652 -654 -656 0
656 -654 -652 0
652 654 656 0
-656 0
657 658 0
659 658 0
-657 -659 -658 0
-660 658 -661 0
660 -658 -661 0
661 -658 -660 0
660 658 661 0
-661 0
659 -662 0
662 -659 0
663 664 0
665 664 0
-663 -665 -664 0
-666 664 -667 0
666 -664 -667 0
667 -664 -666 0
666 664 667 0
-667 0
668 669 0
670 669 0
-668 -670 -669 0
-665 669 -671 0
665 -669 -671 0
671 -669 -665 0
665 669 671 0
-671 0
672 673 0
674 673 0
-672 -674 -673 0
-670 673 -675 0
670 -673 -675 0
675 -673 -670 0
670 673 675 0
-675 0
663 676 0
668 676 0
672 676 0
677 676 0
-678 0
-674 676 -679 0
674 -676 -679 0
679 -676 -674 0
674 676 679 0
-679 0
680 -681 0
682 680 0
681 -682 -680 0
1 -680 0
-1 680 0
683 -684 0
685 683 0
684 -685 -683 0
6 -683 0
-6 683 0
686 -687 0
688 686 0
687 -688 -686 0
11 -686 0
-11 686 0
689 -690 0
691 689 0
690 -691 -689 0
13 -689 0
-13 689 0
692 -693 0
694 692 0
693 -694 -692 0
18 -692 0
-18 692 0
695 -696 0
697 695 0
696 -697 -695 0
22 -695 0
-22 695 0
698 -699 0
700 698 0
699 -700 -698 0
23 -698 0
-23 698 0
701 -702 0
703 701 0
702 -703 -701 0
28 -701 0
-28 701 0
704 -705 0
706 704 0
705 -706 -704 0
32 -704 0
-32 704 0
707 -708 0
709 707 0
708 -709 -707 0
36 -707 0
-36 707 0
710 -711 0
712 710 0
711 -712 -710 0
40 -710 0
-40 710 0
713 -714 0
715 713 0
714 -715 -713 0
44 -713 0
-44 713 0
716 -717 0
718 716 0
717 -718 -716 0
49 -716 0
-49 716 0
719 -720 0
721 719 0
720 -721 -719 0
51 -719 0
-51 719 0
722 -723 0
724 722 0
723 -724 -722 0
56 -722 0
-56 722 0
725 -726 0
727 725 0
726 -727 -725 0
60 -725 0
-60 725 0
728 -729 0
730 728 0
729 -730 -728 0
62 -728 0
-62 728 0
731 -732 0
733 731 0
732 -733 -731 0
65 -731 0
-65 731 0
734 -735 0
736 734 0
735 -736 -734 0
70 -734 0
-70 734 0
737 -738 0
739 737 0
738 -739 -737 0
74 -737 0
-74 737 0
740 -741 0
742 740 0
741 -742 -740 0
78 -740 0
-78 740 0
743 -744 0
745 743 0
744 -745 -743 0
82 -743 0
-82 743 0
746 -747 0
748 746 0
747 -748 -746 0
87 -746 0
-87 746 0
749 -750 0
751 749 0
750 -751 -749 0
89 -749 0
-89 749 0
752 -753 0
754 752 0
753 -754 -752 0
95 -752 0
-95 752 0
755 -756 0
757 755 0
756 -757 -755 0
97 -755 0
-97 755 0
758 -759 0
760 758 0
759 -760 -758 0
102 -758 0
-102 758 0
761 -762 0
763 761 0
762 -763 -761 0
107 -761 0
-107 761 0
764 -765 0
766 764 0
765 -766 -764 0
109 -764 0
-109 764 0
767 -768 0
769 767 0
768 -769 -767 0
114 -767 0
-114 767 0
770 -771 0
772 770 0
771 -772 -770 0
118 -770 0
-118 770 0
773 -774 0
775 773 0
774 -775 -773 0
122 -773 0
-122 773 0
776 -777 0
778 776 0
777 -778 -776 0
126 -776 0
-126 776 0
779 -780 0
781 779 0
780 -781 -779 0
131 -779 0
-131 779 0
782 -783 0
784 782 0
783 -784 -782 0
134 -782 0
-134 782 0
785 -786 0
787 785 0
786 -787 -785 0
139 -785 0
-139 785 0
788 -789 0
790 788 0
789 -790 -788 0
143 -788 0
-143 788 0
791 -792 0
793 791 0
792 -793 -791 0
147 -791 0
-147 791 0
794 -795 0
796 794 0
795 -796 -794 0
151 -794 0
-151 794 0
797 -798 0
799 797 0
798 -799 -797 0
155 -797 0
-155 797 0
800 -801 0
802 800 0
801 -802 -800 0
160 -800 0
-160 800 0
803 -804 0
805 803 0
804 -805 -803 0
164 -803 0
-164 803 0
806 -807 0
808 806 0
807 -808 -806 0
168 -806 0
-168 806 0
809 -810 0
811 809 0
810 -811 -809 0
171 -809 0
-171 809 0
812 -813 0
814 812 0
813 -814 -812 0
175 -812 0
-175 812 0
815 -816 0
817 815 0
816 -817 -815 0
180 -815 0
-180 815 0
818 -819 0
820 818 0
819 -820 -818 0
185 -818 0
-185 818 0
821 -822 0
823 821 0
822 -823 -821 0
188 -821 0
-188 821 0
824 -825 0
826 824 0
825 -826 -824 0
191 -824 0
-191 824 0
827 -828 0
829 827 0
828 -829 -827 0
196 -827 0
-196 827 0
830 -831 0
832 830 0
831 -832 -830 0
201 -830 0
-201 830 0
833 -834 0
835 833 0
834 -835 -833 0
203 -833 0
-203 833 0
836 -837 0
838 836 0
837 -838 -836 0
207 -836 0
-207 836 0
839 -840 0
841 839 0
840 -841 -839 0
212 -839 0
-212 839 0
842 -843 0
844 842 0
843 -844 -842 0
217 -842 0
-217 842 0
845 -846 0
847 845 0
846 -847 -845 0
219 -845 0
-219 845 0
848 -849 0
850 848 0
849 -850 -848 0
224 -848 0
-224 848 0
851 -852 0
853 851 0
852 -853 -851 0
228 -851 0
-228 851 0
854 -855 0
856 854 0
855 -856 -854 0
231 -854 0
-231 854 0
857 -858 0
859 857 0
858 -859 -857 0
236 -857 0
-236 857 0
860 -861 0
862 860 0
861 -862 -860 0
240 -860 0
-240 860 0
863 -864 0
865 863 0
864 -865 -863 0
244 -863 0
-244 863 0
866 -867 0
868 866 0
867 -868 -866 0
249 -866 0
-249 866 0
869 -870 0
871 869 0
870 -871 -869 0
251 -869 0
-251 869 0
872 -873 0
874 872 0
873 -874 -872 0
256 -872 0
-256 872 0
875 -876 0
877 875 0
876 -877 -875 0
260 -875 0
-260 875 0
878 -879 0
880 878 0
879 -880 -878 0
264 -878 0
-264 878 0
881 -882 0
883 881 0
882 -883 -881 0
268 -881 0
-268 881 0
884 -885 0
886 884 0
885 -886 -884 0
272 -884 0
-272 884 0
887 -888 0
889 887 0
888 -889 -887 0
276 -887 0
-276 887 0
890 -891 0
892 890 0
891 -892 -890 0
281 -890 0
-281 890 0
893 -894 0
895 893 0
894 -895 -893 0
284 -893 0
-284 893 0
896 -897 0
898 896 0
897 -898 -896 0
289 -896 0
-289 896 0
899 -900 0
901 899 0
900 -901 -899 0
293 -899 0
-293 899 0
902 -903 0
904 902 0
903 -904 -902 0
297 -902 0
-297 902 0
905 -906 0
907 905 0
906 -907 -905 0
301 -905 0
-301 905 0
908 -909 0
910 908 0
909 -910 -908 0
305 -908 0
-305 908 0
911 -912 0
913 911 0
912 -913 -911 0
310 -911 0
-310 911 0
914 -915 0
916 914 0
915 -916 -914 0
313 -914 0
-313 914 0
917 -918 0
919 917 0
918 -919 -917 0
318 -917 0
-318 917 0
920 -921 0
922 920 0
921 -922 -920 0
323 -920 0
-323 920 0
923 -924 0
925 923 0
924 -925 -923 0
325 -923 0
-325 923 0
926 -927 0
928 926 0
927 -928 -926 0
330 -926 0
-330 926 0
929 -930 0
931 929 0
930 -931 -929 0
334 -929 0
-334 929 0
932 -933 0
934 932 0
933 -934 -932 0
338 -932 0
-338 932 0
935 -936 0
937 935 0
936 -937 -935 0
342 -935 0
-342 935 0
938 -939 0
940 938 0
939 -940 -938 0
347 -938 0
-347 938 0
941 -942 0
943 941 0
942 -943 -941 0
349 -941 0
-349 941 0
944 -945 0
946 944 0
945 -946 -944 0
354 -944 0
-354 944 0
947 -948 0
949 947 0
948 -949 -947 0
358 -947 0
-358 947 0
950 -951 0
952 950 0
951 -952 -950 0
362 -950 0
-362 950 0
953 -954 0
955 953 0
954 -955 -953 0
366 -953 0
-366 953 0
956 -957 0
958 956 0
957 -958 -956 0
370 -956 0
-370 956 0
959 -960 0
961 959 0
960 -961 -959 0
375 -959 0
-375 959 0
962 -963 0
964 962 0
963 -964 -962 0
377 -962 0
-377 962 0
965 -966 0
967 965 0
966 -967 -965 0
382 -965 0
-382 965 0
968 -969 0
970 968 0
969 -970 -968 0
386 -968 0
-386 968 0
971 -972 0
973 971 0
972 -973 -971 0
390 -971 0
-390 971 0
974 -975 0
976 974 0
975 -976 -974 0
394 -974 0
-394 974 0
977 -978 0
979 977 0
978 -979 -977 0
399 -977 0
-399 977 0
980 -981 0
982 980 0
981 -982 -980 0
402 -980 0
-402 980 0
983 -984 0
985 983 0
984 -985 -983 0
407 -983 0
-407 983 0
986 -987 0
988 986 0
987 -988 -986 0
411 -986 0
-411 986 0
989 -990 0
991 989 0
990 -991 -989 0
415 -989 0
-415 989 0
992 -993 0
994 992 0
993 -994 -992 0
419 -992 0
-419 992 0
995 -996 0
997 995 0
996 -997 -995 0
423 -995 0
-423 995 0
998 -999 0
1000 998 0
999 -1000 -998 0
428 -998 0
-428 998 0
1001 -1002 0
1003 1001 0
1002 -1003 -1001 0
430 -1001 0
-430 1001 0
1004 -1005 0
1006 1004 0
1005 -1006 -1004 0
435 -1004 0
-435 1004 0
1007 -1008 0
1009 1007 0
1008 -1009 -1007 0
439 -1007 0
-439 1007 0
1010 -1011 0
1012 1010 0
1011 -1012 -1010 0
443 -1010 0
-443 1010 0
1013 -1014 0
1015 1013 0
1014 -1015 -1013 0
447 -1013 0
-447 1013 0
1016 -1017 0
1018 1016 0
1017 -1018 -1016 0
452 -1016 0
-452 1016 0
1019 -1020 0
1021 1019 0
1020 -1021 -1019 0
454 -1019 0
-454 1019 0
1022 -1023 0
1024 1022 0
1023 -1024 -1022 0
459 -1022 0
-459 1022 0
1025 -1026 0
1027 1025 0
1026 -1027 -1025 0
464 -1025 0
-464 1025 0
1028 -1029 0
1030 1028 0
1029 -1030 -1028 0
466 -1028 0
-466 1028 0
1031 -1032 0
1033 1031 0
1032 -1033 -1031 0
472 -1031 0
-472 1031 0
1034 -1035 0
1036 1034 0
1035 -1036 -1034 0
474 -1034 0
-474 1034 0
1037 -1038 0
1039 1037 0
1038 -1039 -1037 0
479 -1037 0
-479 1037 0
1040 -1041 0
1042 1040 0
1041 -1042 -1040 0
483 -1040 0
-483 1040 0
1043 -1044 0
1045 1043 0
1044 -1045 -1043 0
487 -1043 0
-487 1043 0
1046 -1047 0
1048 1046 0
1047 -1048 -1046 0
492 -1046 0
-492 1046 0
1049 -1050 0
1051 1049 0
1050 -1051 -1049 0
494 -1049 0
-494 1049 0
1052 -1053 0
1054 1052 0
1053 -1054 -1052 0
499 -1052 0
-499 1052 0
1055 -1056 0
1057 1055 0
1056 -1057 -1055 0
503 -1055 0
-503 1055 0
1058 -1059 0
1060 1058 0
1059 -1060 -1058 0
507 -1058 0
-507 1058 0
1061 -1062 0
1063 1061 0
1062 -1063 -1061 0
511 -1061 0
-511 1061 0
1064 -1065 0
1066 1064 0
1065 -1066 -1064 0
516 -1064 0
-516 1064 0
1067 -1068 0
1069 1067 0
1068 -1069 -1067 0
518 -1067 0
-518 1067 0
1070 -1071 0
1072 1070 0
1071 -1072 -1070 0
523 -1070 0
-523 1070 0
1073 -1074 0
1075 1073 0
1074 -1075 -1073 0
528 -1073 0
-528 1073 0
1076 -1077 0
1078 1076 0
1077 -1078 -1076 0
530 -1076 0
-530 1076 0
1079 -1080 0
1081 1079 0
1080 -1081 -1079 0
535 -1079 0
-535 1079 0
1082 -1083 0
1084 1082 0
1083 -1084 -1082 0
539 -1082 0
-539 1082 0
1085 -1086 0
1087 1085 0
1086 -1087 -1085 0
543 -1085 0
-543 1085 0
1088 -1089 0
1090 1088 0
1089 -1090 -1088 0
547 -1088 0
-547 1088 0
1091 -1092 0
1093 1091 0
1092 -1093 -1091 0
551 -1091 0
-551 1091 0
1094 -1095 0
1096 1094 0
1095 -1096 -1094 0
555 -1094 0
-555 1094 0
1097 -1098 0
1099 1097 0
1098 -1099 -1097 0
560 -1097 0
-560 1097 0
1100 -1101 0
1102 1100 0
1101 -1102 -1100 0
563 -1100 0
-563 1100 0
1103 -1104 0
1105 1103 0
1104 -1105 -1103 0
568 -1103 0
-568 1103 0
1106 -1107 0
1108 1106 0
1107 -1108 -1106 0
572 -1106 0
-572 1106 0
1109 -1110 0
1111 1109 0
1110 -1111 -1109 0
576 -1109 0
-576 1109 0
1112 -1113 0
1114 1112 0
1113 -1114 -1112 0
581 -1112 0
-581 1112 0
1115 -1116 0
1117 1115 0
1116 -1117 -1115 0
583 -1115 0
-583 1115 0
1118 -1119 0
1120 1118 0
1119 -1120 -1118 0
588 -1118 0
-588 1118 0
1121 -1122 0
1123 1121 0
1122 -1123 -1121 0
592 -1121 0
-592 1121 0
1124 -1125 0
1126 1124 0
1125 -1126 -1124 0
596 -1124 0
-596 1124 0
1127 -1128 0
1129 1127 0
1128 -1129 -1127 0
598 -1127 0
-598 1127 0
1130 -1131 0
1132 1130 0
1131 -1132 -1130 0
602 -1130 0
-602 1130 0
1133 -1134 0
1135 1133 0
1134 -1135 -1133 0
605 -1133 0
-605 1133 0
1136 -1137 0
1138 1136 0
1137 -1138 -1136 0
610 -1136 0
-610 1136 0
1139 -1140 0
1141 1139 0
1140 -1141 -1139 0
614 -1139 0
-614 1139 0
1142 -1143 0
1144 1142 0
1143 -1144 -1142 0
619 -1142 0
-619 1142 0
1145 -1146 0
1147 1145 0
1146 -1147 -1145 0
621 -1145 0
-621 1145 0
1148 -1149 0
1150 1148 0
1149 -1150 -1148 0
626 -1148 0
-626 1148 0
1151 -1152 0
1153 1151 0
1152 -1153 -1151 0
630 -1151 0
-630 1151 0
1154 -1155 0
1156 1154 0
1155 -1156 -1154 0
635 -1154 0
-635 1154 0
1157 -1158 0
1159 1157 0
1158 -1159 -1157 0
637 -1157 0
-637 1157 0
1160 -1161 0
1162 1160 0
1161 -1162 -1160 0
643 -1160 0
-643 1160 0
1163 -1164 0
1165 1163 0
1164 -1165 -1163 0
645 -1163 0
-645 1163 0
1166 -1167 0
1168 1166 0
1167 -1168 -1166 0
650 -1166 0
-650 1166 0
1169 -1170 0
1171 1169 0
1170 -1171 -1169 0
655 -1169 0
-655 1169 0
1172 -1173 0
1174 1172 0
1173 -1174 -1172 0
657 -1172 0
-657 1172 0
1175 -1176 0
1177 1175 0
1176 -1177 -1175 0
662 -1175 0
-662 1175 0
1178 -1179 0
1180 1178 0
1179 -1180 -1178 0
663 -1178 0
-663 1178 0
1181 -1182 0
1183 1181 0
1182 -1183 -1181 0
668 -1181 0
-668 1181 0
1184 -1185 0
1186 1184 0
1185 -1186 -1184 0
672 -1184 0
-672 1184 0
1187 -1188 0
1189 1187 0
1188 -1189 -1187 0
677 -1187 0
-677 1187 0
682 0
685 0
-688 0
-691 0
694 0
-697 0
700 0
-703 0
706 0
-709 0
-712 0
-715 0
718 0
-721 0
-724 0
727 0
-730 0
-733 0
736 0
739 0
742 0
745 0
-748 0
-751 0
754 0
-757 0
-760 0
-763 0
766 0
769 0
-772 0
775 0
778 0
-781 0
-784 0
-787 0
-790 0
793 0
-796 0
799 0
802 0
-805 0
-808 0
-811 0
814 0
-817 0
-820 0
-823 0
-826 0
-829 0
-832 0
-835 0
-838 0
-841 0
-844 0
-847 0
-850 0
-853 0
856 0
-859 0
-862 0
-865 0
-868 0
-871 0
874 0
-877 0
880 0
-883 0
-886 0
889 0
892 0
895 0
898 0
-901 0
904 0
907 0
-910 0
913 0
-916 0
-919 0
922 0
925 0
-928 0
931 0
-934 0
-937 0
-940 0
-943 0
-946 0
949 0
-952 0
955 0
958 0
-961 0
964 0
-967 0
970 0
973 0
-976 0
979 0
-982 0
-985 0
-988 0
991 0
994 0
-997 0
1000 0
-1003 0
1006 0
-1009 0
1012 0
-1015 0
-1018 0
-1021 0
-1024 0
-1027 0
-1030 0
1033 0
1036 0
-1039 0
1042 0
1045 0
-1048 0
1051 0
-1054 0
1057 0
1060 0
1063 0
-1066 0
1069 0
1072 0
1075 0
-1078 0
1081 0
1084 0
1087 0
-1090 0
1093 0
1096 0
-1099 0
1102 0
-1105 0
-1108 0
1111 0
1114 0
1117 0
-1120 0
1123 0
-1126 0
-1129 0
1132 0
-1135 0
1138 0
1141 0
-1144 0
1147 0
-1150 0
-1153 0
1156 0
1159 0
-1162 0
1165 0
1168 0
1171 0
-1174 0
1177 0
-1180 0
1183 0
-1186 0
1189 0
4 0
8 0
16 0
26 0
46 0
54 0
63 0
68 0
92 0
100 0
112 0
137 0
165 0
169 0
173 0
178 0
189 0
194 0
205 0
210 0
222 0
229 0
-234 0
-254 0
-287 0
-316 0
-328 0
-352 0
-380 0
-405 0
-433 0
-457 0
-469 0
-477 0
-497 0
-521 0
-533 0
-566 0
-586 0
-599 0
-603 0
-608 0
-624 0
-640 0
-648 0
-660 0
-666 0
